c SAT Generator for power-law distributed variable frequencies
c -g u -v 20 -c 91 -k 3 -p 2.750000 -b 3.200000 -f /home/schmidt/Devel/ni-kop-sat/data/ensemble/ruf20-91/ruf20-91-193 -u 1 -U 1 -s 3527165627
p cnf 20 91
3 15 19 0
-3 -9 -15 0
-1 6 12 0
-4 7 18 0
1 -5 14 0
-5 12 14 0
-5 7 12 0
6 8 11 0
-4 13 -15 0
8 -11 19 0
3 13 -18 0
-7 -9 19 0
-12 -14 -20 0
7 19 -20 0
-5 6 14 0
-3 -19 20 0
5 7 -15 0
-14 -16 17 0
5 17 19 0
-13 17 18 0
9 -10 -15 0
5 -8 12 0
1 2 -12 0
-7 12 -16 0
1 -9 10 0
9 11 -16 0
-4 -15 -20 0
6 8 16 0
5 -7 15 0
9 13 16 0
10 -18 19 0
-5 -6 -20 0
-4 7 -13 0
-1 -4 20 0
3 -5 17 0
-7 -13 15 0
-9 14 -17 0
-7 -17 20 0
3 7 17 0
4 6 -12 0
-5 8 -19 0
-1 6 -17 0
-1 -11 -15 0
-3 9 16 0
3 10 -18 0
4 16 18 0
6 8 -18 0
8 9 13 0
3 6 -18 0
-3 9 -13 0
-10 13 19 0
-9 -13 19 0
-9 -14 -18 0
3 -8 -16 0
-1 2 -19 0
11 12 -15 0
9 -12 -20 0
1 -4 13 0
3 5 18 0
5 7 -20 0
1 -9 15 0
18 -19 -20 0
1 -7 -16 0
-2 6 7 0
4 -6 -16 0
-4 -7 -12 0
-1 -5 17 0
-6 -7 9 0
3 -13 -14 0
2 4 8 0
2 15 19 0
15 -16 17 0
-3 6 -11 0
-4 11 18 0
3 13 17 0
3 5 -13 0
3 -14 -16 0
5 -10 -19 0
3 5 -7 0
-2 4 5 0
1 -3 5 0
-9 -12 16 0
5 -14 17 0
-13 14 -15 0
8 -12 -14 0
-17 19 20 0
13 -14 20 0
10 -15 -20 0
-11 14 -17 0
-10 -13 -15 0
5 10 -13 0
